************************************************************************
file with basedata            : md323_.bas
initial value random generator: 731688320
************************************************************************
projects                      :  1
jobs (incl. supersource/sink ):  22
horizon                       :  155
RESOURCES
  - renewable                 :  2   R
  - nonrenewable              :  2   N
  - doubly constrained        :  0   D
************************************************************************
PROJECT INFORMATION:
pronr.  #jobs rel.date duedate tardcost  MPM-Time
    1     20      0       18       15       18
************************************************************************
PRECEDENCE RELATIONS:
jobnr.    #modes  #successors   successors
   1        1          3           2   3   4
   2        3          3           6   9  14
   3        3          3           5   8  11
   4        3          3          12  16  20
   5        3          2           9  17
   6        3          3           7  12  18
   7        3          2           8  17
   8        3          2          15  16
   9        3          3          10  13  16
  10        3          2          12  20
  11        3          3          14  15  19
  12        3          2          19  21
  13        3          1          15
  14        3          1          18
  15        3          1          21
  16        3          1          21
  17        3          1          19
  18        3          1          20
  19        3          1          22
  20        3          1          22
  21        3          1          22
  22        1          0        
************************************************************************
REQUESTS/DURATIONS:
jobnr. mode duration  R 1  R 2  N 1  N 2
------------------------------------------------------------------------
  1      1     0       0    0    0    0
  2      1     2       0    7    0    9
         2     8       7    0    0    9
         3    10       6    0    0    9
  3      1     1       0    2    4    0
         2     5       0    2    0    3
         3     7       0    1    4    0
  4      1     4       9    0    0    5
         2     6       7    0   10    0
         3    10       0    2    0    3
  5      1     2       0    3    0    2
         2     3       0    3    9    0
         3     5       0    2    8    0
  6      1     1       0    4    9    0
         2     6       0    4    8    0
         3     7       0    2    6    0
  7      1     1       0   10    0   10
         2     6       0    9    0    2
         3    10       0    9    5    0
  8      1     1       7    0    9    0
         2     2       5    0    5    0
         3     3       4    0    0    6
  9      1     5       0    9    0    3
         2     7       0    9    0    2
         3    10       0    7    0    2
 10      1     2       0    6    0   10
         2     3       0    5    0    4
         3     3       0    3    0    7
 11      1     3       0    4    0    4
         2     5       3    0    0    2
         3     6       1    0    3    0
 12      1     3       0    4    0    9
         2     5       4    0    0    8
         3     6       0    3    3    0
 13      1     2       7    0    0    5
         2     6       6    0    0    4
         3    10       0    6    0    2
 14      1     3       6    0    0    4
         2     7       2    0    5    0
         3     8       0    2    4    0
 15      1     1       0    1    5    0
         2     3       3    0    5    0
         3     4       2    0    2    0
 16      1     4       0    4    3    0
         2     8       0    3    0    3
         3     8       0    1    3    0
 17      1     5       7    0    0    7
         2     9       0    9    1    0
         3    10       0    8    0    4
 18      1    10       1    0    9    0
         2    10       0    2    0    3
         3    10       5    0    0    5
 19      1     4       3    0    0    5
         2     6       1    0    0    4
         3    10       0    4    2    0
 20      1     1       0    5    5    0
         2     7       6    0    3    0
         3     9       3    0    0    5
 21      1     2       7    0    8    0
         2     8       6    0    4    0
         3     9       3    0    2    0
 22      1     0       0    0    0    0
************************************************************************
RESOURCEAVAILABILITIES:
  R 1  R 2  N 1  N 2
   16   21   30   37
************************************************************************
MAXIMAL LAGS:
from  to  type  delay
    1   22   ES      0
    1    2   ES      0
    2   22   ES      0
    1    3   ES      0
    3   22   ES      0
    1    4   ES      0
    4   22   ES      0
    1    5   ES      0
    5   22   ES      0
    1    6   ES      0
    6   22   ES      0
    1    7   ES      0
    7   22   ES      0
    1    8   ES      0
    8   22   ES      0
    1    9   ES      0
    9   22   ES      0
    1   10   ES      0
   10   22   ES      0
    1   11   ES      0
   11   22   ES      0
    1   12   ES      0
   12   22   ES      0
    1   13   ES      0
   13   22   ES      0
    1   14   ES      0
   14   22   ES      0
    1   15   ES      0
   15   22   ES      0
    1   16   ES      0
   16   22   ES      0
    1   17   ES      0
   17   22   ES      0
    1   18   ES      0
   18   22   ES      0
    1   19   ES      0
   19   22   ES      0
    1   20   ES      0
   20   22   ES      0
    1   21   ES      0
   21   22   ES      0
    1   22   ES      0
    2    6   SS     -4
    2    6   SE      1
    2    6   ES     12
    2    6   EE     -2
    2    9   SS      5
    2    9   SE    -10
    2    9   ES     -1
    2    9   EE     -6
    2   14   SS      7
    2   14   SE      4
    2   14   ES     12
    2   14   EE      5
    3    5   SS     -1
    3    5   SE      8
    3    5   ES     -7
    3    5   EE     10
    3    8   SS     -9
    3    8   SE      3
    3    8   ES      5
    3    8   EE      7
    3   11   SS     -2
    3   11   SE     -2
    3   11   ES      7
    3   11   EE      7
    4   12   SS    -11
    4   12   SE      6
    4   12   ES      4
    4   12   EE     -3
    4   16   SS     10
    4   16   SE      9
    4   16   ES    -10
    4   16   EE     -7
    4   20   SS      5
    4   20   SE      0
    4   20   ES     -2
    4   20   EE     -1
    5    9   SS      4
    5    9   SE     -9
    9    5   SE      0
    5    9   ES      0
    5    9   EE      2
    5   17   SS     -1
    5   17   SE     12
    5   17   ES      7
    5   17   EE     -7
    6    7   SS     -6
    6    7   SE      5
    6    7   ES     -6
    6    7   EE     -9
    6   12   SS      6
    6   12   SE     -5
    6   12   ES     -3
    6   12   EE      5
    6   18   SS     12
    6   18   SE      6
    6   18   ES    -10
    6   18   EE      5
    7    8   SS     10
    7    8   SE     12
    7    8   ES    -11
    7    8   EE     11
    7   17   SS    -11
    7   17   SE     -6
    7   17   ES      5
    7   17   EE    -10
    8   15   SS     -4
    8   15   SE      0
    8   15   ES     -6
    8   15   EE     -4
    8   16   SS     -8
    8   16   SE     10
    8   16   ES      7
    8   16   EE     -7
    9   10   SS     -3
    9   10   SE     -7
    9   10   ES     -9
    9   10   EE     10
    9   13   SS      7
    9   13   SE     -1
    9   13   ES      6
    9   13   EE      2
    9   16   SS     11
    9   16   SE     -5
    9   16   ES     12
    9   16   EE    -11
   10   12   SS      6
   10   12   SE     11
   10   12   ES     -9
   10   12   EE     -7
   10   20   SS    -10
   10   20   SE      4
   10   20   ES     -2
   10   20   EE     -8
   11   14   SS      3
   11   14   SE     -6
   11   14   ES     -3
   11   14   EE    -10
   11   15   SS    -10
   11   15   SE     -3
   11   15   ES     11
   11   15   EE      0
   11   19   SS    -10
   11   19   SE     -6
   11   19   ES     -5
   11   19   EE    -10
   12   19   SS     -2
   12   19   SE      8
   12   19   ES     -1
   12   19   EE     -1
   12   21   SS     -6
   12   21   SE    -11
   12   21   ES    -10
   12   21   EE     -2
   13   15   SS     -5
   13   15   SE    -11
   13   15   ES     -6
   13   15   EE    -11
   14   18   SS     -3
   14   18   SE     -3
   14   18   ES    -12
   14   18   EE      2
   15   21   SS      2
   15   21   SE      5
   15   21   ES    -10
   15   21   EE      9
   16   21   SS     10
   16   21   SE     -9
   16   21   ES    -11
   16   21   EE      7
   17   19   SS     11
   17   19   SE      1
   17   19   ES     -1
   17   19   EE      7
   18   20   SS      5
   18   20   SE     -3
   18   20   ES      9
   18   20   EE     12
************************************************************************
